Instance Name : rc203
Date : 2022-07-21
Solution
Route 1 : 1 3 5 45 7 73 47 15 11 9 10 12 14 17 16 13 82 90
Route 2 : 65 99 52 86 87 74 59 97 75 58 77 25 24 57 83
Route 3 : 64 51 89 76 18 23 21 48 19 49 22 20 84 85 63 56 66
Route 4 : 92 95 62 33 28 26 27 29 31 30 32 34 50 67 96 54 81 61 68
Route 5 : 69 98 88 53 60 78 79 6 8 46 4 2 55 100 70
Route 6 : 42 39 36 43 44 41 38 40 35 37 72 71 93 94 91 80
